NAME = SAfile180,
TOURSIZE = 180,
LENGTH = 1960,
176,180,116,172,45,12,16,29,152,139,43,52,135,158,129,154,87,86,56,157,108,144,133,25,88,102,105,110,111,114,27,141,31,53,76,131,67,69,132,6,22,175,173,174,72,82,85,60,14,168,89,118,44,24,137,62,166,179,121,80,13,134,122,20,68,17,19,106,2,18,136,90,167,75,39,3,34,10,97,156,57,113,32,4,50,38,63,11,1,91,98,142,119,71,140,5,9,148,59,161,151,117,49,99,150,149,107,35,84,130,46,138,42,21,8,93,79,162,61,15,147,40,77,70,23,37,36,66,64,171,83,41,155,128,153,123,124,55,169,177,104,145,163,74,78,159,47,51,30,109,95,92,160,165,115,120,7,178,65,100,143,146,127,126,101,26,94,48,81,112,58,125,33,73,28,54,164,170,96,103